&input
  fildyn='si.dyn.xml',
  zasr='crystal',
  flfrc='./espresso.ifc2'
/

