&input
  fildyn='si.dyn',
  zasr='crystal',
  flfrc='./espresso.ifc2'
/

